NAME: instance_429
TYPE: TSP
DIMENSION: 20
EDGE_WEIGHT_TYPE: EUC_2D
NODE_COORD_SECTION
0 45.20 80.06
1 72.96 6.41
2 29.84 76.11
3 7.55 74.85
4 55.05 69.98
5 53.48 66.66
6 54.48 57.70
7 24.80 65.55
8 81.01 31.51
9 12.48 99.86
10 96.04 46.87
11 51.45 3.49
12 94.75 35.35
13 61.83 91.77
14 35.11 52.84
15 28.89 44.32
16 57.13 65.27
17 11.18 69.44
18 26.99 59.73
19 78.09 65.50
EOF
